c This is QMaxSAT 2017 based on 14.07
c This is Glucose 3.0
c This is MiniSat 2.2.0
c WARNING: for repeatability, setting FPU to use double precision
c card = mrwto, comp = 0, pmodel = 0, narr = 2, mct = 14, verb = 0
cr firstCPXsol 0 0 0
c top = 80229
c |  Number of variables:    450                                              |
c |  Number of clauses:      5412                                             |
c |  Weight of hard clauses: 80229                                            |
c |  Number of soft clauses: 416                                              |
c |  Number of unit soft clauses: 0                                           |
c |  Maximum Cardinality (by unit): 180588       (0           )               |
c last restart ## conflicts  :  1 135 
o 4863 | cpuTime 0.027936 s
c Sum of weights = 90294
c A number of soft clauses remained = 208
c MRWTO encoding for Pseudo-Boolean Constraints
c sizeMax=4863
c No.0 Divisor=9	generated by pow1
c No.1 Divisor=9	generated by pow1
c No.2 Divisor=9	generated by pow1
c No.3 Divisor=9	generated by pow1
c p0= 9	p1= 9	p2= 9	p3= 9	
c number of digits = 5
c linkingVar[0].size = 9, linkingVar[1].size = 9, linkingVar[2].size = 9, linkingVar[3].size = 7, linkingVar[4].size = 1, 
c Pseudo-Boolean Constraints: 5153 variables and 41867 clauses
c Sum of weights = 90294
c A number of soft clauses remained = 208
c MRWTO encoding for Pseudo-Boolean Constraints
c sizeMax=4863
c No.0 Divisor=9	generated by pow1
c No.1 Divisor=9	generated by pow1
c No.2 Divisor=9	generated by pow1
c No.3 Divisor=9	generated by pow1
c p0= 9	p1= 9	p2= 9	p3= 9	
c number of digits = 5
c linkingVar[0].size = 9, linkingVar[1].size = 9, linkingVar[2].size = 9, linkingVar[3].size = 7, linkingVar[4].size = 1, 
c Pseudo-Boolean Constraints: 5153 variables and 41867 clauses
c last restart ## conflicts  :  156 751 
o 4203 | cpuTime 0.075919 s
c last restart ## conflicts  :  52 669 
o 3141 | cpuTime 0.088406 s
c last restart ## conflicts  :  199 490 
o 2993 | cpuTime 0.199534 s
c last restart ## conflicts  :  821 336 
o 2654 | cpuTime 0.221999 s
c last restart ## conflicts  :  785 528 
o 2607 | cpuTime 0.400376 s
c last restart ## conflicts  :  85 629 
o 2403 | cpuTime 0.403821 s
c last restart ## conflicts  :  263 425 
o 2351 | cpuTime 0.615871 s
c last restart ## conflicts  :  210 354 
o 2234 | cpuTime 0.6242 s
c last restart ## conflicts  :  9378 380 
o 2202 | cpuTime 19.6591 s
c last restart ## conflicts  :  93859 386 
o 2171 | cpuTime 26.1359 s
c last restart ## conflicts  :  672 393 
o 2101 | cpuTime 26.1792 s
c last restart ## conflicts  :  207085 392 
o 2088 | cpuTime 213.413 s
c last restart ## conflicts  :  38715 324 
o 2072 | cpuTime 217.21 s
c last restart ## conflicts  :  20187 349 
o 2069 | cpuTime 218.992 s
c last restart ## conflicts  :  62097 368 
o 2055 | cpuTime 227.278 s
c last restart ## conflicts  :  36865 444 
o 2042 | cpuTime 235.404 s
c last restart ## conflicts  :  1769 348 
o 2038 | cpuTime 235.785 s
s UNKNOWN
c Search is stopped by a limit (maybe time-limit)
cr positiVarArr: [ | 9(1->8) | 19(1->3) | 32(2->1) | 50(3->4) | 72(4->11) | 82(5->6) | 103(6->12) | 111(7->5) | 134(8->13) | 146(9->10) | 151(10->1) | 175(11->9) | 195(12->14) | 203(13->7) | 213(14->2) | ]
cr the 1-th chain: [ 1->8->13->7->5->6->12->14->2->1 ] (#non-depot=8) {#cumul.=9}
cr the 2-th chain: [ 1->3->4->11->9->10->1 ] (#non-depot=5) {#cumul.=14}
c Latest Answer = 0 by 18 loops
c restarts              : 93644
c conflicts             : 16374044       (3990 /sec)
c decisions             : 26208220       (0.00 % random) (6386 /sec)
c propagations          : 1260259510     (307089 /sec)
c conflict literals     : 995601010      (21.57 % deleted)
c Memory used           : 373.00 MB
c CPU time              : 4103.89 s
